coords = array2d(1..68, 1..2, [799, 688, 271, 469, 735, 148, 508, 941, 151,
    754, 58, 485, 319, 690, 342, 646, 409, 748, 158, 327, 801, 562,
    809, 173, 684, 679, 642, 56, 214, 727, 8, 910, 396, 777, 396, 512,
    887, 298, 449, 143, 606, 727, 189, 568, 397, 283, 912, 403, 557,
    722, 2, 492, 90, 1, 456, 221, 670, 642, 790, 95, 887, 419, 567,
    169, 943, 509, 251, 833, 859, 167, 149, 594, 624, 936, 689, 799,
    954, 608, 588, 352, 610, 960, 582, 568, 772, 385, 36, 598, 227,
    519, 414, 457, 51, 104, 955, 396, 688, 552, 544, 111, 360, 693,
    746, 482, 946, 511, 694, 417, 742, 91, 233, 891, 423, 189, 26,
    340, 793, 710, 47, 9, 81, 496, 370, 622, 179, 866, 951, 334, 77,
    442, 502, 122, 607, 767, 497, 816]);

n = 68;

